objective value:                       2.391034826724
x(0,3,0)                                            1 	(obj:0)
x(1,10,0)                                           1 	(obj:0)
x(2,4,0)                                            1 	(obj:0)
x(3,2,0)                                            1 	(obj:0)
x(4,1,0)                                            1 	(obj:0)
x(10,0,0)                                           1 	(obj:0)
xc(0,9)                                             1 	(obj:0)
xc(1,0)                                             1 	(obj:0)
xc(3,0)                                             1 	(obj:0)
u(1,0)                               2.30995869539216 	(obj:0)
u(2,0)                              0.491580224890275 	(obj:0)
u(3,0)                              0.262297888636351 	(obj:0)
u(4,0)                               1.20953387521732 	(obj:0)
u(10,0)                                2.391034826724 	(obj:0)
u(11,0)                            0.0794987294641007 	(obj:0)
u(12,0)                             0.313034202305499 	(obj:0)
u(13,0)                             0.203474222008499 	(obj:0)
u(14,0)                                1.019348688843 	(obj:0)
u(15,0)                             0.549949183475499 	(obj:0)
u(16,0)                             0.490036744889998 	(obj:0)
u(17,0)                               0.5952191343822 	(obj:0)
u(18,0)                             0.230497220715199 	(obj:0)
u(19,0)                               0.2846194091626 	(obj:0)
f(0,9,0)                                            1 	(obj:0)
f(0,9,1)                                            1 	(obj:0)
f(0,9,2)                                            1 	(obj:0)
f(0,9,3)                                            1 	(obj:0)
f(0,9,4)                                            1 	(obj:0)
f(1,0,1)                                            1 	(obj:0)
f(1,0,2)                                            1 	(obj:0)
f(1,10,4)                                           1 	(obj:0)
f(2,4,2)                                            1 	(obj:0)
f(3,0,3)                                            1 	(obj:0)
f(4,1,2)                                            1 	(obj:0)
f(4,1,4)                                            1 	(obj:0)
f(10,0,4)                                           1 	(obj:0)
z_r(0,)                                2.391034826724 	(obj:0)
z                                      2.391034826724 	(obj:1)
